(set-logic HORN)
(set-info :source |
  Benchmark: test_safe_2019/adt/zip.ml
  Generated by MoCHi
|)
(set-info :status unknown)
(declare-fun |fail_40[0:0]| ( Int) Bool)
(declare-fun |zip[0:2]| ( Int  Int) Bool)
(declare-fun |make_list[0:1][0:0]| ( Int  Int) Bool)
(declare-fun |make_list[0:0]| ( Int) Bool)
(assert (not (exists ((x0 Int)) (|fail_40[0:0]| x0))))
(assert (forall ((x0 Int)(x1 Int)(x2 Int)) (=> (and (|zip[0:2]| x1 x2) (and (<= x1 0) (>= x2 1))) (|fail_40[0:0]| x0))))
(assert (forall ((x2 Int)(x0 Int)(x1 Int)) (=> (and (|make_list[0:1][0:0]| x1 x2) (= x2 x0)) (|zip[0:2]| x2 x0))))
(assert (forall ((x1 Int)(x0 Int)) (=> (and (|make_list[0:0]| x1) (and (= x0 0) (<= (+ 1 x1) 0))) (|make_list[0:1][0:0]| x1 x0))))
(assert (forall ((x0 Int)) (|make_list[0:0]| x0)))
(check-sat)
(get-model)
(exit)
